0 13 32 14 11 27 12 35 48 57 44 23 12 16 19     
13 0 11 16 17 19 14 23 14 15 17 19 22 14 16 
32 11 0 10 32 44 35 54 65 23 12 22 16 12 11
14 16 10 0 13 14 54 23 22 65 32 12 19 18 21
11 17 32 13 0 22 21 34 41 54 12 11 61 17 28
27 19 44 14 22 0 12 11 42 54 32 19 17 12 21
12 14 35 54 21 12 0 33 41 15 12 25 12 11 17
35 23 54 23 34 11 33 0 13 11 14 17 43 32 15
48 14 65 22 41 42 41 13 0 12 54 67 32 43 19
57 15 23 65 54 54 15 11 12 0 11 42 65 57 18
44 17 12 32 12 32 12 14 54 11 0 13 34 32 14
23 19 22 12 11 19 25 17 67 42 13 0 11 15 17
12 22 16 19 61 17 12 43 32 65 34 11 0 12 16
16 14 12 18 17 12 11 32 43 57 32 15 12 0 31
19 16 11 21 28 21 17 15 19 18 14 17 16 31 0